c File: instances/20_0.10_3.col
c
c Description: Random graph of size 20 vertices and P(0.1) of edges between any two vertices.
p col 20 190
e 1 3
e 2 5
e 2 10
e 2 18
e 3 4
e 3 6
e 4 11
e 5 16
e 6 20
e 7 9
e 7 15
e 7 17
e 8 9
e 10 11
e 10 18
e 12 16
e 13 18
e 15 17
e 17 19